1	37733
2	30946
3	30793
4	30509
5	30016.0
6	30016.0
7	30016.0
8	30016.0
9	30016.0
10	30016.0
11	30016.0
12	30016.0
13	30016.0
14	30016.0
15	30016.0
16	30016.0
17	30016.0
18	30016.0
19	30016.0
20	30016.0
21	30016.0
